*<meta creator='lp_solve v5.5'>
*<meta rows=262>
*<meta columns=179>
*<meta equalities=0>
*<meta integers=0>
*<meta origsense='MIN'>
*
NAME                  
ROWS
 N  R0      
 G  R1      
 G  R2      
 G  R3      
 G  R4      
 G  R5      
 G  R6      
 G  R7      
 G  R8      
 G  R9      
 G  R10     
 G  R11     
 G  R12     
 G  R13     
 G  R14     
 G  R15     
 G  R16     
 G  R17     
 G  R18     
 G  R19     
 G  R20     
 G  R21     
 G  R22     
 G  R23     
 G  R24     
 G  R25     
 G  R26     
 G  R27     
 G  R28     
 G  R29     
 G  R30     
 G  R31     
 G  R32     
 G  R33     
 G  R34     
 G  R35     
 G  R36     
 G  R37     
 G  R38     
 G  R39     
 G  R40     
 G  R41     
 G  R42     
 G  R43     
 G  R44     
 G  R45     
 G  R46     
 G  R47     
 G  R48     
 G  R49     
 G  R50     
 G  R51     
 G  R52     
 G  R53     
 G  R54     
 G  R55     
 G  R56     
 G  R57     
 G  R58     
 G  R59     
 G  R60     
 G  R61     
 G  R62     
 G  R63     
 G  R64     
 G  R65     
 G  R66     
 G  R67     
 G  R68     
 G  R69     
 G  R70     
 G  R71     
 G  R72     
 G  R73     
 G  R74     
 G  R75     
 G  R76     
 G  R77     
 G  R78     
 G  R79     
 G  R80     
 G  R81     
 G  R82     
 G  R83     
 G  R84     
 G  R85     
 G  R86     
 G  R87     
 G  R88     
 G  R89     
 G  R90     
 G  R91     
 G  R92     
 G  R93     
 G  R94     
 G  R95     
 G  R96     
 G  R97     
 G  R98     
 G  R99     
 G  R100    
 G  R101    
 G  R102    
 G  R103    
 G  R104    
 G  R105    
 G  R106    
 G  R107    
 G  R108    
 G  R109    
 G  R110    
 G  R111    
 G  R112    
 G  R113    
 G  R114    
 G  R115    
 G  R116    
 G  R117    
 G  R118    
 G  R119    
 G  R120    
 G  R121    
 G  R122    
 G  R123    
 G  R124    
 G  R125    
 G  R126    
 G  R127    
 G  R128    
 G  R129    
 G  R130    
 G  R131    
 G  R132    
 G  R133    
 G  R134    
 G  R135    
 G  R136    
 G  R137    
 G  R138    
 G  R139    
 G  R140    
 G  R141    
 G  R142    
 G  R143    
 G  R144    
 G  R145    
 G  R146    
 G  R147    
 G  R148    
 G  R149    
 G  R150    
 G  R151    
 G  R152    
 G  R153    
 G  R154    
 G  R155    
 G  R156    
 G  R157    
 G  R158    
 G  R159    
 G  R160    
 G  R161    
 G  R162    
 G  R163    
 G  R164    
 G  R165    
 G  R166    
 G  R167    
 G  R168    
 G  R169    
 G  R170    
 G  R171    
 G  R172    
 G  R173    
 G  R174    
 G  R175    
 G  R176    
 G  R177    
 G  R178    
 G  R179    
 G  R180    
 G  R181    
 G  R182    
 G  R183    
 G  R184    
 G  R185    
 G  R186    
 G  R187    
 G  R188    
 G  R189    
 G  R190    
 G  R191    
 G  R192    
 G  R193    
 G  R194    
 G  R195    
 G  R196    
 G  R197    
 G  R198    
 G  R199    
 G  R200    
 G  R201    
 G  R202    
 G  R203    
 G  R204    
 G  R205    
 G  R206    
 G  R207    
 G  R208    
 G  R209    
 G  R210    
 G  R211    
 G  R212    
 G  R213    
 G  R214    
 G  R215    
 G  R216    
 G  R217    
 G  R218    
 G  R219    
 G  R220    
 G  R221    
 G  R222    
 G  R223    
 G  R224    
 G  R225    
 G  R226    
 G  R227    
 G  R228    
 G  R229    
 G  R230    
 G  R231    
 G  R232    
 G  R233    
 G  R234    
 G  R235    
 G  R236    
 G  R237    
 G  R238    
 G  R239    
 G  R240    
 G  R241    
 G  R242    
 G  R243    
 G  R244    
 G  R245    
 G  R246    
 G  R247    
 G  R248    
 G  R249    
 G  R250    
 G  R251    
 G  R252    
 G  R253    
 G  R254    
 G  R255    
 G  R256    
 G  R257    
 G  R258    
 G  R259    
 G  R260    
 G  R261    
 G  R262    
COLUMNS
    C1        R0        1.0000000000   R1        -1.000000000
    C1        R259      -1.000000000   R262      1.0000000000
    C2        R0        1.0000000000   R1        1.0000000000
    C2        R2        -1.000000000   R4        -1.000000000
    C2        R5        -1.000000000   R6        -1.000000000
    C2        R7        -1.000000000   R8        -1.000000000
    C2        R9        -1.000000000   R10       -1.000000000
    C2        R18       -1.000000000   R19       -1.000000000
    C2        R21       -1.000000000   R24       -1.000000000
    C2        R26       -1.000000000   R32       -1.000000000
    C2        R37       -1.000000000   R45       -1.000000000
    C2        R48       -1.000000000   R151      -1.000000000
    C3        R0        1.0000000000   R2        1.0000000000
    C3        R3        -1.000000000
    C4        R0        1.0000000000   R3        1.0000000000
    C4        R154      -1.000000000
    C5        R0        1.0000000000   R4        1.0000000000
    C5        R111      -1.000000000
    C6        R0        1.0000000000   R5        1.0000000000
    C6        R110      -1.000000000
    C7        R0        1.0000000000   R6        1.0000000000
    C7        R102      -1.000000000
    C8        R0        1.0000000000   R7        1.0000000000
    C8        R84       -1.000000000
    C9        R0        1.0000000000   R8        1.0000000000
    C9        R66       -1.000000000
    C10       R0        1.0000000000   R9        1.0000000000
    C10       R62       -1.000000000
    C11       R0        1.0000000000   R10       1.0000000000
    C11       R11       -1.000000000   R12       -1.000000000
    C11       R13       -1.000000000   R14       -1.000000000
    C11       R15       -1.000000000   R16       -1.000000000
    C11       R17       -1.000000000   R256      -1.000000000
    C12       R0        1.0000000000   R11       1.0000000000
    C12       R214      -1.000000000
    C13       R0        1.0000000000   R12       1.0000000000
    C13       R206      -1.000000000
    C14       R0        1.0000000000   R13       1.0000000000
    C14       R188      -1.000000000
    C15       R0        1.0000000000   R14       1.0000000000
    C15       R170      -1.000000000
    C16       R0        1.0000000000   R15       1.0000000000
    C16       R153      -1.000000000   R215      -1.000000000
    C17       R0        1.0000000000   R16       1.0000000000
    C17       R63       -1.000000000   R166      -1.000000000
    C18       R0        1.0000000000   R17       1.0000000000
    C18       R59       -1.000000000   R162      -1.000000000
    C19       R0        1.0000000000   R18       1.0000000000
    C19       R58       -1.000000000
    C20       R0        1.0000000000   R19       1.0000000000
    C20       R20       -1.000000000
    C21       R0        1.0000000000   R20       1.0000000000
    C21       R57       -1.000000000   R160      -1.000000000
    C22       R0        1.0000000000   R21       1.0000000000
    C22       R22       -1.000000000   R23       -1.000000000
    C23       R0        1.0000000000   R22       1.0000000000
    C23       R159      -1.000000000
    C24       R0        1.0000000000   R23       1.0000000000
    C24       R56       -1.000000000
    C25       R0        1.0000000000   R24       1.0000000000
    C25       R25       -1.000000000
    C26       R0        1.0000000000   R25       1.0000000000
    C26       R55       -1.000000000   R158      -1.000000000
    C27       R0        1.0000000000   R26       1.0000000000
    C27       R27       -1.000000000   R28       -1.000000000
    C27       R29       -1.000000000   R30       -1.000000000
    C27       R31       -1.000000000
    C28       R0        1.0000000000   R27       1.0000000000
    C28       R172      -1.000000000
    C29       R0        1.0000000000   R28       1.0000000000
    C29       R169      -1.000000000
    C30       R0        1.0000000000   R29       1.0000000000
    C30       R165      -1.000000000
    C31       R0        1.0000000000   R30       1.0000000000
    C31       R157      -1.000000000
    C32       R0        1.0000000000   R31       1.0000000000
    C32       R54       -1.000000000
    C33       R0        1.0000000000   R32       1.0000000000
    C33       R33       -1.000000000   R34       -1.000000000
    C33       R35       -1.000000000   R36       -1.000000000
    C34       R0        1.0000000000   R33       1.0000000000
    C34       R68       -1.000000000   R171      -1.000000000
    C35       R0        1.0000000000   R34       1.0000000000
    C35       R65       -1.000000000   R168      -1.000000000
    C36       R0        1.0000000000   R35       1.0000000000
    C36       R61       -1.000000000   R164      -1.000000000
    C37       R0        1.0000000000   R36       1.0000000000
    C37       R53       -1.000000000   R156      -1.000000000
    C38       R0        1.0000000000   R37       1.0000000000
    C38       R38       -1.000000000   R39       -1.000000000
    C38       R40       -1.000000000   R41       -1.000000000
    C38       R42       -1.000000000   R43       -1.000000000
    C38       R44       -1.000000000
    C39       R0        1.0000000000   R38       1.0000000000
    C39       R258      -1.000000000
    C40       R0        1.0000000000   R39       1.0000000000
    C40       R167      -1.000000000
    C41       R0        1.0000000000   R40       1.0000000000
    C41       R163      -1.000000000
    C42       R0        1.0000000000   R41       1.0000000000
    C42       R67       -1.000000000
    C43       R0        1.0000000000   R42       1.0000000000
    C43       R64       -1.000000000
    C44       R0        1.0000000000   R43       1.0000000000
    C44       R60       -1.000000000
    C45       R0        1.0000000000   R44       1.0000000000
    C45       R52       -1.000000000
    C46       R0        1.0000000000   R45       1.0000000000
    C46       R46       -1.000000000   R47       -1.000000000
    C47       R0        1.0000000000   R46       1.0000000000
    C47       R161      -1.000000000
    C48       R0        1.0000000000   R47       1.0000000000
    C48       R51       -1.000000000
    C49       R0        1.0000000000   R48       1.0000000000
    C49       R49       -1.000000000
    C50       R0        1.0000000000   R49       1.0000000000
    C50       R50       -1.000000000   R155      -1.000000000
    C51       R0        1.0000000000
    C52       R0        1.0000000000   R50       1.0000000000
    C52       R70       -1.000000000   R113      -1.000000000
    C53       R0        1.0000000000   R51       1.0000000000
    C53       R69       -1.000000000   R112      -1.000000000
    C54       R0        1.0000000000   R52       1.0000000000
    C54       R72       -1.000000000   R115      -1.000000000
    C55       R0        1.0000000000   R53       1.0000000000
    C55       R74       -1.000000000   R117      -1.000000000
    C56       R0        1.0000000000   R54       1.0000000000
    C56       R76       -1.000000000   R119      -1.000000000
    C57       R0        1.0000000000   R55       1.0000000000
    C57       R78       -1.000000000   R121      -1.000000000
    C58       R0        1.0000000000   R56       1.0000000000
    C58       R80       -1.000000000   R123      -1.000000000
    C59       R0        1.0000000000   R57       1.0000000000
    C59       R82       -1.000000000   R125      -1.000000000
    C60       R0        1.0000000000   R58       1.0000000000
    C60       R86       -1.000000000   R127      -1.000000000
    C61       R0        1.0000000000   R59       1.0000000000
    C61       R88       -1.000000000   R129      -1.000000000
    C62       R0        1.0000000000   R60       1.0000000000
    C62       R90       -1.000000000   R131      -1.000000000
    C63       R0        1.0000000000   R61       1.0000000000
    C63       R92       -1.000000000   R133      -1.000000000
    C64       R0        1.0000000000   R62       1.0000000000
    C64       R94       -1.000000000   R135      -1.000000000
    C65       R0        1.0000000000   R63       1.0000000000
    C65       R96       -1.000000000   R137      -1.000000000
    C66       R0        1.0000000000   R64       1.0000000000
    C66       R98       -1.000000000   R139      -1.000000000
    C67       R0        1.0000000000   R65       1.0000000000
    C67       R100      -1.000000000   R141      -1.000000000
    C68       R0        1.0000000000   R66       1.0000000000
    C68       R104      -1.000000000   R143      -1.000000000
    C69       R0        1.0000000000   R67       1.0000000000
    C69       R106      -1.000000000   R145      -1.000000000
    C70       R0        1.0000000000   R68       1.0000000000
    C70       R108      -1.000000000   R147      -1.000000000
    C71       R0        1.0000000000   R69       1.0000000000
    C71       R70       1.0000000000   R71       -1.000000000
    C72       R0        1.0000000000   R71       1.0000000000
    C72       R72       1.0000000000   R73       -1.000000000
    C73       R0        1.0000000000   R73       1.0000000000
    C73       R74       1.0000000000   R75       -1.000000000
    C74       R0        1.0000000000   R75       1.0000000000
    C74       R76       1.0000000000   R77       -1.000000000
    C75       R0        1.0000000000   R77       1.0000000000
    C75       R78       1.0000000000   R79       -1.000000000
    C76       R0        1.0000000000   R79       1.0000000000
    C76       R80       1.0000000000   R81       -1.000000000
    C77       R0        1.0000000000   R81       1.0000000000
    C77       R82       1.0000000000   R83       -1.000000000
    C77       R85       -1.000000000
    C78       R0        1.0000000000   R83       1.0000000000
    C78       R84       1.0000000000
    C79       R0        1.0000000000   R85       1.0000000000
    C79       R86       1.0000000000   R87       -1.000000000
    C80       R0        1.0000000000   R87       1.0000000000
    C80       R88       1.0000000000   R89       -1.000000000
    C81       R0        1.0000000000   R89       1.0000000000
    C81       R90       1.0000000000   R91       -1.000000000
    C82       R0        1.0000000000   R91       1.0000000000
    C82       R92       1.0000000000   R93       -1.000000000
    C83       R0        1.0000000000   R93       1.0000000000
    C83       R94       1.0000000000   R95       -1.000000000
    C84       R0        1.0000000000   R95       1.0000000000
    C84       R96       1.0000000000   R97       -1.000000000
    C85       R0        1.0000000000   R97       1.0000000000
    C85       R98       1.0000000000   R99       -1.000000000
    C86       R0        1.0000000000   R99       1.0000000000
    C86       R100      1.0000000000   R101      -1.000000000
    C86       R103      -1.000000000
    C87       R0        1.0000000000   R101      1.0000000000
    C87       R102      1.0000000000
    C88       R0        1.0000000000   R103      1.0000000000
    C88       R104      1.0000000000   R105      -1.000000000
    C89       R0        1.0000000000   R105      1.0000000000
    C89       R106      1.0000000000   R107      -1.000000000
    C90       R0        1.0000000000   R107      1.0000000000
    C90       R108      1.0000000000   R109      -1.000000000
    C91       R0        1.0000000000   R109      1.0000000000
    C91       R110      1.0000000000
    C92       R0        1.0000000000   R111      1.0000000000
    C92       R149      -1.000000000
    C93       R0        1.0000000000   R112      1.0000000000
    C93       R113      1.0000000000   R114      -1.000000000
    C94       R0        1.0000000000   R114      1.0000000000
    C94       R115      1.0000000000   R116      -1.000000000
    C95       R0        1.0000000000   R116      1.0000000000
    C95       R117      1.0000000000   R118      -1.000000000
    C96       R0        1.0000000000   R118      1.0000000000
    C96       R119      1.0000000000   R120      -1.000000000
    C97       R0        1.0000000000   R120      1.0000000000
    C97       R121      1.0000000000   R122      -1.000000000
    C98       R0        1.0000000000   R122      1.0000000000
    C98       R123      1.0000000000   R124      -1.000000000
    C99       R0        1.0000000000   R124      1.0000000000
    C99       R125      1.0000000000   R126      -1.000000000
    C100      R0        1.0000000000   R126      1.0000000000
    C100      R127      1.0000000000   R128      -1.000000000
    C101      R0        1.0000000000   R128      1.0000000000
    C101      R129      1.0000000000   R130      -1.000000000
    C102      R0        1.0000000000   R130      1.0000000000
    C102      R131      1.0000000000   R132      -1.000000000
    C103      R0        1.0000000000   R132      1.0000000000
    C103      R133      1.0000000000   R134      -1.000000000
    C104      R0        1.0000000000   R134      1.0000000000
    C104      R135      1.0000000000   R136      -1.000000000
    C105      R0        1.0000000000   R136      1.0000000000
    C105      R137      1.0000000000   R138      -1.000000000
    C106      R0        1.0000000000   R138      1.0000000000
    C106      R139      1.0000000000   R140      -1.000000000
    C107      R0        1.0000000000   R140      1.0000000000
    C107      R141      1.0000000000   R142      -1.000000000
    C108      R0        1.0000000000   R142      1.0000000000
    C108      R143      1.0000000000   R144      -1.000000000
    C109      R0        1.0000000000   R144      1.0000000000
    C109      R145      1.0000000000   R146      -1.000000000
    C110      R0        1.0000000000   R146      1.0000000000
    C110      R147      1.0000000000   R148      -1.000000000
    C111      R0        1.0000000000   R148      1.0000000000
    C111      R149      1.0000000000   R150      -1.000000000
    C112      R0        1.0000000000   R150      1.0000000000
    C112      R151      1.0000000000   R152      -1.000000000
    C113      R0        1.0000000000   R152      1.0000000000
    C113      R153      1.0000000000   R216      -1.000000000
    C114      R0        1.0000000000
    C115      R0        1.0000000000   R154      1.0000000000
    C115      R174      -1.000000000   R218      -1.000000000
    C116      R0        1.0000000000   R155      1.0000000000
    C116      R173      -1.000000000   R217      -1.000000000
    C117      R0        1.0000000000   R156      1.0000000000
    C117      R176      -1.000000000   R220      -1.000000000
    C118      R0        1.0000000000   R157      1.0000000000
    C118      R178      -1.000000000   R222      -1.000000000
    C119      R0        1.0000000000   R158      1.0000000000
    C119      R180      -1.000000000   R224      -1.000000000
    C120      R0        1.0000000000   R159      1.0000000000
    C120      R182      -1.000000000   R226      -1.000000000
    C121      R0        1.0000000000   R160      1.0000000000
    C121      R184      -1.000000000   R228      -1.000000000
    C122      R0        1.0000000000   R161      1.0000000000
    C122      R186      -1.000000000   R230      -1.000000000
    C123      R0        1.0000000000   R162      1.0000000000
    C123      R190      -1.000000000   R232      -1.000000000
    C124      R0        1.0000000000   R163      1.0000000000
    C124      R192      -1.000000000   R234      -1.000000000
    C125      R0        1.0000000000   R164      1.0000000000
    C125      R194      -1.000000000   R236      -1.000000000
    C126      R0        1.0000000000   R165      1.0000000000
    C126      R196      -1.000000000   R238      -1.000000000
    C127      R0        1.0000000000   R166      1.0000000000
    C127      R198      -1.000000000   R240      -1.000000000
    C128      R0        1.0000000000   R167      1.0000000000
    C128      R200      -1.000000000   R242      -1.000000000
    C129      R0        1.0000000000   R168      1.0000000000
    C129      R202      -1.000000000   R244      -1.000000000
    C130      R0        1.0000000000   R169      1.0000000000
    C130      R204      -1.000000000   R246      -1.000000000
    C131      R0        1.0000000000   R170      1.0000000000
    C131      R208      -1.000000000   R248      -1.000000000
    C132      R0        1.0000000000   R171      1.0000000000
    C132      R210      -1.000000000   R250      -1.000000000
    C133      R0        1.0000000000   R172      1.0000000000
    C133      R212      -1.000000000   R252      -1.000000000
    C134      R0        1.0000000000   R173      1.0000000000
    C134      R174      1.0000000000   R175      -1.000000000
    C135      R0        1.0000000000   R175      1.0000000000
    C135      R176      1.0000000000   R177      -1.000000000
    C136      R0        1.0000000000   R177      1.0000000000
    C136      R178      1.0000000000   R179      -1.000000000
    C137      R0        1.0000000000   R179      1.0000000000
    C137      R180      1.0000000000   R181      -1.000000000
    C138      R0        1.0000000000   R181      1.0000000000
    C138      R182      1.0000000000   R183      -1.000000000
    C139      R0        1.0000000000   R183      1.0000000000
    C139      R184      1.0000000000   R185      -1.000000000
    C140      R0        1.0000000000   R185      1.0000000000
    C140      R186      1.0000000000   R187      -1.000000000
    C140      R189      -1.000000000
    C141      R0        1.0000000000   R187      1.0000000000
    C141      R188      1.0000000000
    C142      R0        1.0000000000   R189      1.0000000000
    C142      R190      1.0000000000   R191      -1.000000000
    C143      R0        1.0000000000   R191      1.0000000000
    C143      R192      1.0000000000   R193      -1.000000000
    C144      R0        1.0000000000   R193      1.0000000000
    C144      R194      1.0000000000   R195      -1.000000000
    C145      R0        1.0000000000   R195      1.0000000000
    C145      R196      1.0000000000   R197      -1.000000000
    C146      R0        1.0000000000   R197      1.0000000000
    C146      R198      1.0000000000   R199      -1.000000000
    C147      R0        1.0000000000   R199      1.0000000000
    C147      R200      1.0000000000   R201      -1.000000000
    C148      R0        1.0000000000   R201      1.0000000000
    C148      R202      1.0000000000   R203      -1.000000000
    C149      R0        1.0000000000   R203      1.0000000000
    C149      R204      1.0000000000   R205      -1.000000000
    C149      R207      -1.000000000
    C150      R0        1.0000000000   R205      1.0000000000
    C150      R206      1.0000000000
    C151      R0        1.0000000000   R207      1.0000000000
    C151      R208      1.0000000000   R209      -1.000000000
    C152      R0        1.0000000000   R209      1.0000000000
    C152      R210      1.0000000000   R211      -1.000000000
    C153      R0        1.0000000000   R211      1.0000000000
    C153      R212      1.0000000000   R213      -1.000000000
    C154      R0        1.0000000000   R213      1.0000000000
    C154      R214      1.0000000000
    C155      R0        1.0000000000   R215      1.0000000000
    C155      R216      1.0000000000   R254      -1.000000000
    C156      R0        1.0000000000   R217      1.0000000000
    C156      R218      1.0000000000   R219      -1.000000000
    C157      R0        1.0000000000   R219      1.0000000000
    C157      R220      1.0000000000   R221      -1.000000000
    C158      R0        1.0000000000   R221      1.0000000000
    C158      R222      1.0000000000   R223      -1.000000000
    C159      R0        1.0000000000   R223      1.0000000000
    C159      R224      1.0000000000   R225      -1.000000000
    C160      R0        1.0000000000   R225      1.0000000000
    C160      R226      1.0000000000   R227      -1.000000000
    C161      R0        1.0000000000   R227      1.0000000000
    C161      R228      1.0000000000   R229      -1.000000000
    C162      R0        1.0000000000   R229      1.0000000000
    C162      R230      1.0000000000   R231      -1.000000000
    C163      R0        1.0000000000   R231      1.0000000000
    C163      R232      1.0000000000   R233      -1.000000000
    C164      R0        1.0000000000   R233      1.0000000000
    C164      R234      1.0000000000   R235      -1.000000000
    C165      R0        1.0000000000   R235      1.0000000000
    C165      R236      1.0000000000   R237      -1.000000000
    C166      R0        1.0000000000   R237      1.0000000000
    C166      R238      1.0000000000   R239      -1.000000000
    C167      R0        1.0000000000   R239      1.0000000000
    C167      R240      1.0000000000   R241      -1.000000000
    C168      R0        1.0000000000   R241      1.0000000000
    C168      R242      1.0000000000   R243      -1.000000000
    C169      R0        1.0000000000   R243      1.0000000000
    C169      R244      1.0000000000   R245      -1.000000000
    C170      R0        1.0000000000   R245      1.0000000000
    C170      R246      1.0000000000   R247      -1.000000000
    C171      R0        1.0000000000   R247      1.0000000000
    C171      R248      1.0000000000   R249      -1.000000000
    C172      R0        1.0000000000   R249      1.0000000000
    C172      R250      1.0000000000   R251      -1.000000000
    C173      R0        1.0000000000   R251      1.0000000000
    C173      R252      1.0000000000   R253      -1.000000000
    C174      R0        1.0000000000   R253      1.0000000000
    C174      R254      1.0000000000   R255      -1.000000000
    C175      R0        1.0000000000   R255      1.0000000000
    C175      R256      1.0000000000   R257      -1.000000000
    C176      R0        1.0000000000   R257      1.0000000000
    C176      R258      1.0000000000
    C177      R0        1.0000000000   R259      1.0000000000
    C177      R260      -1.000000000   R262      -1.000000000
    C178      R0        1.0000000000   R260      1.0000000000
    C178      R261      -1.000000000
    C179      R0        1.0000000000   R261      1.0000000000
RHS
    RHS       R69       1.0000000000   R70       1.0000000000
    RHS       R72       1.0000000000   R74       1.0000000000
    RHS       R76       1.0000000000   R78       1.0000000000
    RHS       R80       1.0000000000   R82       1.0000000000
    RHS       R88       1.0000000000   R90       1.0000000000
    RHS       R92       1.0000000000   R94       1.0000000000
    RHS       R96       1.0000000000   R98       1.0000000000
    RHS       R100      1.0000000000   R106      1.0000000000
    RHS       R108      1.0000000000   R112      1.0000000000
    RHS       R113      1.0000000000   R115      1.0000000000
    RHS       R117      1.0000000000   R119      1.0000000000
    RHS       R121      1.0000000000   R123      1.0000000000
    RHS       R125      1.0000000000   R129      1.0000000000
    RHS       R131      1.0000000000   R133      1.0000000000
    RHS       R135      1.0000000000   R137      1.0000000000
    RHS       R139      1.0000000000   R141      1.0000000000
    RHS       R145      1.0000000000   R147      1.0000000000
    RHS       R149      1.0000000000   R173      1.0000000000
    RHS       R174      1.0000000000   R176      1.0000000000
    RHS       R178      1.0000000000   R180      1.0000000000
    RHS       R182      1.0000000000   R184      1.0000000000
    RHS       R186      1.0000000000   R190      1.0000000000
    RHS       R192      1.0000000000   R194      1.0000000000
    RHS       R196      1.0000000000   R198      1.0000000000
    RHS       R200      1.0000000000   R202      1.0000000000
    RHS       R204      1.0000000000   R208      1.0000000000
    RHS       R210      1.0000000000   R212      1.0000000000
    RHS       R217      1.0000000000   R218      1.0000000000
    RHS       R220      1.0000000000   R222      1.0000000000
    RHS       R224      1.0000000000   R226      1.0000000000
    RHS       R228      1.0000000000   R230      1.0000000000
    RHS       R232      1.0000000000   R234      1.0000000000
    RHS       R236      1.0000000000   R238      1.0000000000
    RHS       R240      1.0000000000   R242      1.0000000000
    RHS       R244      1.0000000000   R246      1.0000000000
    RHS       R248      1.0000000000   R250      1.0000000000
    RHS       R252      1.0000000000   R254      1.0000000000
    RHS       R262      -1.000000000
ENDATA
